;test regex ^(allowed chars {0})+(allowed chars)*$
(declare-const X String)
(assert (str.in_re X (re.++ (re.++ (str.to_re "") (re.++ (re.+ (re.++ (str.to_re "a") (re.++ (str.to_re "l") (re.++ (str.to_re "l") (re.++ (str.to_re "o") (re.++ (str.to_re "w") (re.++ (str.to_re "e") (re.++ (str.to_re "d") (re.++ (str.to_re " ") (re.++ (str.to_re "c") (re.++ (str.to_re "h") (re.++ (str.to_re "a") (re.++ (str.to_re "r") (re.++ (str.to_re "s") ((_ re.loop 0 0) (str.to_re " ")))))))))))))))) (re.* (re.++ (str.to_re "a") (re.++ (str.to_re "l") (re.++ (str.to_re "l") (re.++ (str.to_re "o") (re.++ (str.to_re "w") (re.++ (str.to_re "e") (re.++ (str.to_re "d") (re.++ (str.to_re " ") (re.++ (str.to_re "c") (re.++ (str.to_re "h") (re.++ (str.to_re "a") (re.++ (str.to_re "r") (str.to_re "s")))))))))))))))) (str.to_re ""))))
; sanitize danger characters:  < > ' " &
(assert (not (str.in_re X (re.++ re.all (re.union (str.to_re "\u{3c}") (str.to_re "\u{3e}") (str.to_re "\u{27}") (str.to_re "\u{22}") (str.to_re "\u{26}")) re.all))))
(assert (< 20 (str.len X)))
(check-sat)
(get-model)